webassembly/ejemplos_dzn/folder9_json_35.dzn
TERM = { '.', 's(2)', 'in_1', 'local_0', 'local_1', 'in_2', 'in_4', 'in_3', 's(1)', 's(0)', 's(3)', 'in_0'};
null = '.';
s = 9;
n = 10;
ndeps = 3;
max_registers_sz = 5;
NR = 2;
registers = [|'local_0', 'in_3', |'local_1', 'in_1'|];
dependencies = [|'i32.load8_s_3', 'call[function_index(0)]_6', |'call[function_index(0)]_6', 'i32.load8_s_8', |'i32.load_5', 'call[function_index(0)]_6'|];
GET_ENUM = { GET1, GET2, GET3, GET4, GET5, GET6, GET7};
SET_ENUM = { SET1, SET2, SET3, SET4, SET5, SET6, SET7};
TEE_ENUM = { TEE1, TEE2, TEE3, TEE4, TEE5, TEE6, TEE7};
N = 5;
OP = { 'call[function_index(0)]_6', 'i32.load8_s_3', 'i32.const_0', 'i32.load_5', 'i32.load8_s_8' };
in_ops = [3, 1, 0, 1, 1 ];
out_ops = [0, 1, 1, 1, 1 ];
in1 = ['s(1)', 'in_1', '.', 's(3)', 'in_4' ];
in2 = ['s(0)', '.', '.', '.', '.' ];
in3 = ['in_2', '.', '.', '.', '.' ];
out1 = ['.', 's(0)', 's(3)', 's(1)', 's(2)' ];
out2 = ['.', '.', '.', '.', '.' ];
out3 = ['.', '.', '.', '.', '.' ];
comm = [false, false, false, false, false ];
gas = [1, 1, 1, 1, 1 ];
sz = [1, 1, 1, 1, 1 ];
stor = [true, false, false, false, false ];
lb = [ 1, 1, 1, 1, 1 ];
ub = [ 9, 9, 9, 9, 9 ];
startstack = [ 'in_0', 'in_1', 'in_2', 'in_3', 'in_4', null, null, null, null, null ];
endstack = [ 's(2)', null, null, null, null, null, null, null, null, null ];
