webassembly/ejemplos_results/9/folder9_json_35.txt
value = 9;
fgas = [2, 1, 1, 1, 1, 1, 1, 1, 1];
fsize = [1, 1, 1, 1, 1, 1, 1, 1, 1];
states = 
[|   in_0,   in_1, in_2, in_3, in_4, '.', '.', '.', '.', '.'
 |   in_1,   in_2, in_3, in_4,  '.', '.', '.', '.', '.', '.'
 |   in_1,   in_2, in_3, in_4,  '.', '.', '.', '.', '.', '.'
 | 's(0)',   in_2, in_3, in_4,  '.', '.', '.', '.', '.', '.'
 | 's(0)',   in_2, in_3, in_4,  '.', '.', '.', '.', '.', '.'
 | 's(3)', 's(0)', in_2, in_3, in_4, '.', '.', '.', '.', '.'
 | 's(1)', 's(0)', in_2, in_3, in_4, '.', '.', '.', '.', '.'
 |   in_3,   in_4,  '.',  '.',  '.', '.', '.', '.', '.', '.'
 |   in_4,    '.',  '.',  '.',  '.', '.', '.', '.', '.', '.'
 | 's(2)',    '.',  '.',  '.',  '.', '.', '.', '.', '.', '.'
 |];
register_states = 
[| local_0, local_1, '.', '.', '.', '.', '.'
 | local_0, local_1, '.', '.', '.', '.', '.'
 | local_0,    in_1, '.', '.', '.', '.', '.'
 | local_0,    in_1, '.', '.', '.', '.', '.'
 |  's(0)',    in_1, '.', '.', '.', '.', '.'
 |  's(0)',    in_1, '.', '.', '.', '.', '.'
 |  's(0)',    in_1, '.', '.', '.', '.', '.'
 |  's(0)',    in_1, '.', '.', '.', '.', '.'
 |    in_3,    in_1, '.', '.', '.', '.', '.'
 |    in_3,    in_1, '.', '.', '.', '.', '.'
 |];
program = [POP, TEE(TEE2), O('i32.load8_s_3'), TEE(TEE1), O('i32.const_0'), O('i32.load_5'), O('call[function_index(0)]_6'), S(SET1), O('i32.load8_s_8')];
% time elapsed: 0.20 s
----------
value = 8;
fgas = [1, 1, 1, 1, 1, 1, 1, 1, 0];
fsize = [1, 1, 1, 1, 1, 1, 1, 1, 1];
states = 
[|   in_0,   in_1, in_2, in_3, in_4, '.', '.', '.', '.', '.'
 |   in_1,   in_2, in_3, in_4,  '.', '.', '.', '.', '.', '.'
 | 's(0)',   in_2, in_3, in_4,  '.', '.', '.', '.', '.', '.'
 | 's(3)', 's(0)', in_2, in_3, in_4, '.', '.', '.', '.', '.'
 | 's(1)', 's(0)', in_2, in_3, in_4, '.', '.', '.', '.', '.'
 |   in_1,   in_3, in_4,  '.',  '.', '.', '.', '.', '.', '.'
 |   in_3,   in_4,  '.',  '.',  '.', '.', '.', '.', '.', '.'
 |   in_4,    '.',  '.',  '.',  '.', '.', '.', '.', '.', '.'
 | 's(2)',    '.',  '.',  '.',  '.', '.', '.', '.', '.', '.'
 | 's(2)',    '.',  '.',  '.',  '.', '.', '.', '.', '.', '.'
 |];
register_states = 
[| local_0, local_1, '.', '.', '.', '.', '.'
 | local_0,    in_0, '.', '.', '.', '.', '.'
 | local_0,    in_0, '.', '.', '.', '.', '.'
 | local_0,    in_0, '.', '.', '.', '.', '.'
 | local_0,    in_0, '.', '.', '.', '.', '.'
 | local_0,    in_0, '.', '.', '.', '.', '.'
 | local_0,    in_1, '.', '.', '.', '.', '.'
 |    in_3,    in_1, '.', '.', '.', '.', '.'
 |    in_3,    in_1, '.', '.', '.', '.', '.'
 |    in_3,    in_1, '.', '.', '.', '.', '.'
 |];
program = [S(SET2), O('i32.load8_s_3'), O('i32.const_0'), O('i32.load_5'), O('call[function_index(0)]_6'), S(SET2), S(SET1), O('i32.load8_s_8'), NOP];
% time elapsed: 0.20 s
----------
==========
% time elapsed: 0.21 s
% [value > 7]
